s td 95 48 380
b 1 5 14 18 20 37 38 58 75 98 112 141 163 171 194 211 217 218 219 223 250 251 327 346 361
b 2 28 78 80 92 100 145 214 216 220 282 319 347
b 3 44 49 52 79 114 150 204 236 253 299 306 357
b 4 31 95 118 279 297 362
b 5 4 16 30 84 86 90 102 107 132 164 179 181 209 241 262 277 283 289 321 331 332 340 348 365 372 374
b 6 2 8 35 110 122 123 128 136 142 148 154 174 190 238 260 275 302 311 341 377
b 7 19 41 66 76 85 105 106 109 144 188 200 213 245 249 255 256 262 287 294 296 304 338 340 371 372
b 8 36 45 47 48 79 139 170 180 193 259 290 299 300 313 357
b 9 29 36 45 47 48 79 139 170 180 193 259 299 300 313 357
b 10 44 47 49 79 114 150 204 236 299 357
b 11 3 17 55 60 70 94 108 156 184 233 246 248 286 325 328 337 344 352 360 366
b 12 93 135 137 258 269 354 379
b 13 77 135 137 257 269 282 292 347 354 379
b 14 77 137 214 257 269 282 292 347 354
b 15 31 118 278 280 297 362
b 16 6 9 63 97 118 278 280 297 362 363
b 17 1 7 23 25 26 42 43 53 61 72 74 82 83 88 89 96 103 104 121 125 140 151 165 175 177 178 182 205 212 228 229 242 266 273 274 284 298 303 323 330 335 342 349 367 368 378
b 18 7 11 23 25 26 43 51 53 61 72 82 88 89 91 96 125 133 151 162 165 175 177 182 187 205 210 212 242 265 266 272 273 284 303 330 335 342 343 349 352 367 368 378
b 19 7 11 23 24 25 26 33 43 51 53 60 61 88 89 91 96 125 133 151 162 165 175 177 182 187 196 210 212 231 242 265 266 272 273 284 288 330 335 342 343 352 367
b 20 7 11 23 24 25 26 33 43 51 53 60 61 73 88 89 91 125 126 133 134 151 158 162 175 177 182 187 196 206 210 231 233 242 248 265 266 272 273 286 288 289 330 335 343 352 359 360 367
b 21 7 11 24 25 26 33 43 53 60 61 73 88 89 91 126 133 134 151 158 162 175 177 196 202 206 210 231 233 242 248 265 266 272 273 286 288 289 330 335 343 345 351 352 353 359 360 367
b 22 7 11 24 25 26 43 53 61 73 88 89 91 126 134 151 158 162 175 177 189 196 202 206 210 231 240 242 265 266 271 272 273 289 330 335 339 345 351 353 359 367 373
b 23 4 7 11 24 25 26 32 43 53 56 61 88 89 91 126 151 158 160 162 175 177 189 196 210 231 234 240 242 265 266 271 272 273 289 330 335 339 367 373
b 24 4 7 11 19 24 25 32 43 53 56 61 86 88 89 91 126 151 158 160 162 175 179 189 196 209 210 231 234 240 242 262 265 266 271 272 289 335 339 340 348 367 372 373
b 25 4 11 19 24 32 35 43 53 56 86 89 91 105 110 122 128 162 179 196 209 210 231 234 249 255 262 265 266 272 275 287 304 340 341 348 367 372
b 26 11 24 35 43 53 89 91 105 110 122 128 162 196 210 231 238 255 265 266 272 275 302 341 367
b 27 11 34 35 43 53 89 91 105 110 122 128 162 196 210 231 238 255 265 266 272 275 302 311 341 367
b 28 11 34 35 43 91 105 110 122 128 162 174 210 238 255 260 265 266 272 275 302 311 341
b 29 2 11 34 35 43 81 91 105 110 122 128 162 174 238 255 260 265 266 272 275 302 311 341
b 30 2 34 35 43 81 105 110 122 128 174 190 238 255 260 265 275 302 311 341 377
b 31 2 34 35 43 105 110 122 123 128 136 142 174 190 238 255 260 275 302 311 341 377
b 32 2 8 34 35 43 110 122 123 128 136 142 154 174 190 238 260 275 302 311 341 377
b 33 4 11 19 24 32 35 43 56 76 86 89 91 105 110 122 128 162 179 196 209 210 231 234 249 255 262 265 266 272 275 287 304 340 341 348 367 372
b 34 4 19 24 32 35 56 76 86 91 105 110 113 122 128 131 149 162 179 196 200 209 210 231 234 235 249 255 262 275 287 294 304 334 340 341 348 372
b 35 24 35 39 91 113 122 131 149 162 196 200 210 231 235 294 334 355
b 36 4 19 32 41 56 76 85 86 105 106 110 113 128 131 144 149 179 188 200 209 213 234 235 249 255 256 262 275 287 294 304 334 340 341 348 371 372
b 37 19 41 66 76 85 105 106 109 110 128 131 144 149 188 200 213 235 249 255 256 262 275 287 294 296 304 334 338 340 341 371 372
b 38 4 7 19 25 61 86 88 115 126 143 151 158 160 175 179 189 209 234 240 242 262 271 289 335 339 340 348 372 373
b 39 4 7 19 25 61 86 88 115 143 151 160 175 179 189 209 234 240 242 262 270 271 289 331 335 339 340 348 372 373
b 40 4 30 84 86 102 115 143 179 189 209 234 240 262 270 271 289 331 332 340 348 372 373
b 41 7 19 25 50 57 61 86 88 115 143 151 160 161 175 179 189 209 226 240 242 262 267 270 271 320 331 335 339 340 348 370 372 373
b 42 7 19 25 50 57 61 69 86 88 146 151 160 161 175 179 209 215 226 242 262 267 271 320 335 339 340 348 350 370 372
b 43 7 19 25 50 57 61 69 86 88 119 129 146 151 160 175 179 209 215 226 242 262 267 271 335 340 348 350 370 372
b 44 7 19 25 50 61 69 86 88 119 129 146 151 160 175 179 198 209 215 226 242 262 267 271 315 335 340 348 350 372
b 45 11 23 24 27 33 37 43 44 47 51 53 60 75 77 79 89 91 98 125 133 137 150 162 171 182 187 194 196 204 210 214 231 236 257 265 266 272 282 288 289 292 299 343 346 347 352 357 367
b 46 11 23 24 27 33 37 43 44 47 53 54 60 75 77 79 89 91 98 125 137 150 162 168 171 182 194 196 204 210 214 231 236 257 265 272 282 288 289 292 299 346 347 356 357 367 375
b 47 14 23 24 33 37 38 43 44 47 53 54 58 60 75 77 79 89 98 112 125 137 150 168 171 182 194 196 204 214 217 231 236 250 257 282 288 289 292 299 346 347 356 357 367 375
b 48 13 14 23 24 33 38 43 44 47 53 54 58 60 71 77 79 89 100 112 125 137 150 168 182 196 204 214 216 217 231 236 244 250 257 282 288 289 292 299 319 347 356 357 367 375 376
b 49 13 14 23 24 33 38 43 44 47 53 54 58 60 71 77 79 89 100 112 125 130 137 150 168 182 196 204 214 216 217 236 244 250 257 282 288 289 292 299 319 347 356 357 367 375 376
b 50 13 14 23 24 33 38 43 44 47 53 54 58 60 71 77 79 89 100 125 130 137 150 168 182 204 214 216 217 236 244 250 257 282 288 289 292 299 309 319 347 356 357 367 375 376
b 51 13 23 33 38 44 47 53 54 60 71 77 79 100 116 125 137 150 155 168 182 204 214 216 236 244 257 282 288 289 292 299 309 319 347 356 357 375 376
b 52 10 13 23 33 38 44 47 53 54 60 71 77 79 100 116 125 137 150 155 168 182 204 214 216 227 236 244 257 282 288 292 299 309 319 347 356 357 375 376
b 53 10 13 23 33 38 44 47 53 54 60 71 79 100 116 125 150 155 168 172 182 204 216 227 236 243 244 288 299 309 319 356 357 375 376
b 54 10 13 23 33 38 44 47 53 60 71 79 100 116 125 150 152 155 168 172 182 204 216 227 236 243 244 288 299 301 309 319 356 357 375 376
b 55 10 13 23 29 33 38 44 47 53 60 71 79 100 116 125 139 150 152 155 172 182 204 216 227 236 243 244 288 299 300 301 309 313 319 357 376
b 56 10 29 44 47 79 116 139 150 152 155 172 186 192 201 204 227 236 243 299 300 301 313 333 357
b 57 10 44 116 117 150 152 155 157 166 172 186 192 201 204 227 236 243 285 301 333
b 58 10 13 71 77 100 116 124 137 155 195 214 216 221 227 244 257 282 292 319 347 376
b 59 10 71 77 100 116 124 137 155 185 195 214 216 221 227 244 257 282 292 319 347 376
b 60 11 27 44 47 54 75 79 91 98 147 150 153 162 168 171 173 194 204 210 224 236 265 272 299 346 356 357 375
b 61 11 27 44 47 75 79 91 98 120 147 150 153 162 171 173 194 204 210 224 236 265 272 299 346 357
b 62 12 44 47 59 79 91 120 147 150 153 162 173 204 224 236 299 346 357
b 63 12 15 44 47 59 79 91 147 150 153 173 204 224 236 299 357 380
b 64 15 44 47 59 79 147 150 153 173 183 204 224 236 299 324 357 380
b 65 15 44 47 59 68 79 127 147 150 153 183 204 224 236 268 299 324 357 380
b 66 15 47 59 68 79 101 127 183 247 268 299 324 336 357 380
b 67 22 101 127 183 207 247 268 324 336 357
b 68 15 47 59 68 79 101 127 183 247 263 268 299 324 336 380
b 69 23 33 51 60 125 126 133 158 182 184 187 233 248 286 288 322 337 343 352 360
b 70 23 51 60 62 108 126 133 156 158 182 184 187 233 248 286 322 337 343 352 360
b 71 51 55 60 62 108 126 156 158 182 184 233 246 248 286 322 337 352 360
b 72 17 51 55 60 62 94 108 126 156 158 184 233 246 248 286 337 352 360
b 73 11 23 51 72 82 91 133 162 187 205 210 232 265 266 272 303 343 349 352 368 378
b 74 1 6 7 25 26 42 61 74 82 83 88 96 103 104 121 140 151 159 165 175 177 178 199 205 208 228 229 242 261 273 274 284 298 323 330 335 342 349 362 363 368
b 75 1 6 7 25 26 42 61 74 82 83 88 96 103 104 121 140 151 159 175 177 178 199 205 208 228 229 242 261 273 274 284 297 298 323 330 335 342 349 362 363 368
b 76 1 6 7 25 26 42 61 74 83 87 88 97 99 103 104 121 140 151 159 175 177 178 199 208 228 229 242 252 261 273 274 293 295 297 298 308 317 323 330 335 358 362 363
b 77 1 6 42 61 65 67 74 83 87 88 97 99 103 104 121 140 159 175 178 199 208 228 229 252 261 274 293 295 297 298 308 317 323 335 358 362 363
b 78 6 42 65 67 97 274 291 297 310 362 363
b 79 6 9 63 65 97 291 297 310 362 363
b 80 1 6 40 61 65 67 74 83 87 88 99 103 104 121 140 159 175 178 191 197 199 203 208 225 228 229 252 254 261 293 295 297 298 308 314 317 323 335 358 362 363 364
b 81 1 23 42 43 53 61 72 74 82 83 88 89 96 103 104 111 121 125 140 165 167 175 178 182 205 212 228 229 266 274 284 298 303 307 323 335 342 349 367 368 378
b 82 1 42 53 72 74 82 83 96 103 104 111 140 165 167 205 228 229 266 274 276 284 303 307 329 342 349 368 378
b 83 1 42 53 72 74 82 83 96 103 104 111 140 165 167 205 228 229 230 239 266 274 276 284 303 307 329 342 349 369 378
b 84 1 42 53 74 83 96 103 104 111 140 165 167 228 229 230 239 274 276 284 305 307 318 329 342 369
b 85 1 21 42 53 64 74 83 96 103 104 111 140 167 228 229 230 239 274 276 284 305 307 312 318 329 342 369
b 86 46 138 176 222 237 264 281 282 316 326
b 87 46 138 169 176 194 214 222 237 264 281 282 346 347
b 88 46 75 77 98 137 138 169 171 176 194 214 222 257 282 292 346 347
b 89 37 75 77 98 137 138 171 194 214 222 257 282 292 346 347
b 90 4 16 30 84 86 90 102 132 164 179 181 209 241 262 270 277 283 289 321 331 332 340 348 365 372 374
b 91 4 16 30 84 86 90 102 164 179 181 209 234 262 270 289 331 332 340 348 372
b 92 3 17 55 60 70 94 108 126 156 158 184 233 246 248 286 337 352 360
b 93 78 92 100 124 145 185 195 214 216 220 221 282 319 347
b 94 4 30 84 86 90 102 115 143 164 179 181 209 234 262 270 289 331 332 340 348 372
b 95 29 45 47 48 79 139 170 186 192 193 201 299 300 313 333 357
1 47
2 93
3 10
4 15
5 90
6 32
7 37
8 9
9 95
10 45
11 92
12 13
13 14
14 45
15 16
16 79
17 18
17 74
17 81
18 19
18 73
19 20
20 21
20 45
20 69
21 22
22 23
23 24
24 25
24 38
25 26
25 33
26 27
27 28
28 29
29 30
30 31
31 32
33 34
34 35
34 36
36 37
38 39
39 40
39 41
40 94
41 42
42 43
43 44
45 89
45 46
46 47
46 60
47 48
48 49
49 50
50 51
51 52
52 53
52 58
53 54
54 55
55 56
56 95
56 57
58 59
59 93
60 61
61 62
62 63
63 64
64 65
65 66
66 67
66 68
69 70
70 71
71 72
72 92
74 75
75 76
76 77
77 78
77 80
78 79
81 82
82 83
83 84
84 85
86 87
87 88
88 89
90 91
91 94
